p cnf 75 825
1 -75 -56 0
1 -75 -52 0
1 -75 -41 0
1 -75 3 0
1 -75 28 0
1 -75 31 0
1 -75 46 0
1 -75 51 0
1 -75 55 0
1 -75 67 0
1 -75 73 0
1 -74 -69 0
1 -74 -47 0
1 -74 -42 0
1 -74 -37 0
1 -74 -16 0
1 -74 -9 0
1 -74 -2 0
1 -74 10 0
1 -74 37 0
1 -74 43 0
1 -74 70 0
1 -73 -69 0
1 -73 -53 0
1 -73 -28 0
1 -73 -3 0
1 -73 4 0
1 -73 9 0
1 -73 21 0
1 -73 41 0
1 -73 48 0
1 -73 58 0
1 -73 69 0
1 -72 -40 0
1 -72 -35 0
1 -72 -22 0
1 -72 -20 0
1 -72 -16 0
1 -72 -15 0
1 -72 -7 0
1 -72 2 0
1 -72 17 0
1 -72 64 0
1 -72 69 0
1 -71 -63 0
1 -71 -61 0
1 -71 -59 0
1 -71 -18 0
1 -71 -14 0
1 -71 -11 0
1 -71 -10 0
1 -71 6 0
1 -71 22 0
1 -71 27 0
1 -71 49 0
1 -70 -57 0
1 -70 -54 0
1 -70 -38 0
1 -70 -30 0
1 -70 -22 0
1 -70 -11 0
1 -70 20 0
1 -70 47 0
1 -70 52 0
1 -70 66 0
1 -70 71 0
1 -69 -36 0
1 -69 -25 0
1 -69 -19 0
1 -69 -3 0
1 -69 15 0
1 -69 17 0
1 -69 42 0
1 -69 50 0
1 -69 60 0
1 -68 -52 0
1 -68 -50 0
1 -68 -42 0
1 -68 -24 0
1 -68 -22 0
1 -68 -15 0
1 -68 -10 0
1 -68 -8 0
1 -68 14 0
1 -68 58 0
1 -68 71 0
1 -67 -47 0
1 -67 -27 0
1 -67 -14 0
1 -67 -11 0
1 -67 -8 0
1 -67 2 0
1 -67 17 0
1 -67 37 0
1 -67 41 0
1 -67 43 0
1 -67 72 0
1 -66 -39 0
1 -66 -37 0
1 -66 -26 0
1 -66 -24 0
1 -66 -17 0
1 -66 -10 0
1 -66 1 0
1 -66 7 0
1 -66 33 0
1 -66 45 0
1 -66 59 0
1 -65 -52 0
1 -65 -43 0
1 -65 -26 0
1 -65 -22 0
1 -65 -17 0
1 -65 -12 0
1 -65 12 0
1 -65 36 0
1 -65 38 0
1 -65 61 0
1 -65 63 0
1 -64 -55 0
1 -64 -40 0
1 -64 -13 0
1 -64 -6 0
1 -64 -2 0
1 -64 12 0
1 -64 19 0
1 -64 26 0
1 -64 54 0
1 -64 57 0
1 -64 60 0
1 -63 -62 0
1 -63 -53 0
1 -63 -27 0
1 -63 -16 0
1 -63 1 0
1 -63 3 0
1 -63 8 0
1 -63 24 0
1 -63 53 0
1 -63 67 0
1 -62 -33 0
1 -62 -28 0
1 -62 -2 0
1 -62 9 0
1 -62 30 0
1 -62 32 0
1 -62 43 0
1 -62 63 0
1 -62 66 0
1 -62 68 0
1 -61 -45 0
1 -61 -39 0
1 -61 -37 0
1 -61 -34 0
1 -61 -26 0
1 -61 6 0
1 -61 7 0
1 -61 26 0
1 -61 47 0
1 -61 68 0
1 -60 -49 0
1 -60 -35 0
1 -60 -31 0
1 -60 12 0
1 -60 28 0
1 -60 29 0
1 -60 37 0
1 -60 41 0
1 -60 44 0
1 -60 70 0
1 -60 71 0
1 -59 -55 0
1 -59 -54 0
1 -59 -31 0
1 -59 -11 0
1 -59 1 0
1 -59 14 0
1 -59 40 0
1 -59 46 0
1 -59 48 0
1 -59 52 0
1 -58 -40 0
1 -58 -18 0
1 -58 -15 0
1 -58 -1 0
1 -58 5 0
1 -58 16 0
1 -58 28 0
1 -58 39 0
1 -58 47 0
1 -58 50 0
1 -58 53 0
1 -57 -53 0
1 -57 -50 0
1 -57 -43 0
1 -57 -39 0
1 -57 -32 0
1 -57 -30 0
1 -57 -22 0
1 -57 27 0
1 -57 33 0
1 -57 64 0
1 -56 -39 0
1 -56 -16 0
1 -56 8 0
1 -56 16 0
1 -56 20 0
1 -56 31 0
1 -56 33 0
1 -56 38 0
1 -56 57 0
1 -56 68 0
1 -55 -48 0
1 -55 -26 0
1 -55 -23 0
1 -55 11 0
1 -55 15 0
1 -55 21 0
1 -55 32 0
1 -55 48 0
1 -55 56 0
1 -54 -51 0
1 -54 -37 0
1 -54 -31 0
1 -54 -23 0
1 -54 -9 0
1 -54 5 0
1 -54 43 0
1 -54 48 0
1 -54 67 0
1 -53 -51 0
1 -53 -38 0
1 -53 -20 0
1 -53 13 0
1 -53 40 0
1 -53 47 0
1 -53 56 0
1 -53 69 0
1 -52 -47 0
1 -52 -33 0
1 -52 -2 0
1 -52 8 0
1 -52 23 0
1 -52 42 0
1 -52 46 0
1 -52 75 0
1 -51 -39 0
1 -51 -35 0
1 -51 -32 0
1 -51 -24 0
1 -51 -13 0
1 -51 16 0
1 -51 50 0
1 -51 57 0
1 -51 59 0
1 -50 -35 0
1 -50 -33 0
1 -50 -32 0
1 -50 -3 0
1 -50 4 0
1 -50 10 0
1 -50 23 0
1 -50 25 0
1 -50 41 0
1 -49 -46 0
1 -49 -44 0
1 -49 -14 0
1 -49 -5 0
1 -49 1 0
1 -49 6 0
1 -49 11 0
1 -49 12 0
1 -49 31 0
1 -49 73 0
1 -48 -46 0
1 -48 -35 0
1 -48 -32 0
1 -48 -9 0
1 -48 -6 0
1 -48 1 0
1 -48 7 0
1 -48 32 0
1 -48 43 0
1 -48 66 0
1 -47 -46 0
1 -47 -34 0
1 -47 -29 0
1 -47 -24 0
1 -47 -10 0
1 -47 -7 0
1 -47 6 0
1 -47 39 0
1 -46 -35 0
1 -46 -33 0
1 -46 -28 0
1 -46 5 0
1 -46 29 0
1 -46 36 0
1 -46 53 0
1 -46 67 0
1 -45 -43 0
1 -45 -34 0
1 -45 -20 0
1 -45 3 0
1 -45 6 0
1 -45 7 0
1 -45 25 0
1 -45 35 0
1 -45 38 0
1 -45 46 0
1 -44 -43 0
1 -44 -29 0
1 -44 -15 0
1 -44 -13 0
1 -44 3 0
1 -44 16 0
1 -44 18 0
1 -44 21 0
1 -44 36 0
1 -44 73 0
1 -43 -38 0
1 -43 -20 0
1 -43 -13 0
1 -43 7 0
1 -43 29 0
1 -43 51 0
1 -43 68 0
1 -42 -18 0
1 -42 -10 0
1 -42 -1 0
1 -42 8 0
1 -42 13 0
1 -42 24 0
1 -42 62 0
1 -42 68 0
1 -42 74 0
1 -41 -21 0
1 -41 -6 0
1 -41 -4 0
1 -41 5 0
1 -41 11 0
1 -41 12 0
1 -41 27 0
1 -41 31 0
1 -41 33 0
1 -41 39 0
1 -40 -38 0
1 -40 -34 0
1 -40 -31 0
1 -40 -28 0
1 -40 -19 0
1 -40 -12 0
1 -40 14 0
1 -40 67 0
1 -39 10 0
1 -39 18 0
1 -39 33 0
1 -39 42 0
1 -39 51 0
1 -39 59 0
1 -38 -23 0
1 -38 -8 0
1 -38 -3 0
1 -38 42 0
1 -38 43 0
1 -38 52 0
1 -38 67 0
1 -37 -32 0
1 -37 -28 0
1 -37 -5 0
1 -37 4 0
1 -37 7 0
1 -37 34 0
1 -37 71 0
1 -36 -34 0
1 -36 -29 0
1 -36 -26 0
1 -36 -21 0
1 -36 -9 0
1 -36 3 0
1 -36 7 0
1 -36 13 0
1 -36 51 0
1 -36 73 0
1 -35 -14 0
1 -35 2 0
1 -35 30 0
1 -35 69 0
1 -35 70 0
1 -34 -31 0
1 -34 -14 0
1 -34 -8 0
1 -34 49 0
1 -34 51 0
1 -34 61 0
1 -33 -12 0
1 -33 6 0
1 -33 13 0
1 -33 22 0
1 -33 26 0
1 -33 40 0
1 -33 65 0
1 -32 -5 0
1 -32 -2 0
1 -32 19 0
1 -32 23 0
1 -32 44 0
1 -32 58 0
1 -31 -15 0
1 -31 -6 0
1 -31 16 0
1 -31 19 0
1 -31 51 0
1 -31 55 0
1 -30 -19 0
1 -30 -18 0
1 -30 -11 0
1 -30 -9 0
1 -30 10 0
1 -30 20 0
1 -30 25 0
1 -30 56 0
1 -30 62 0
1 -29 -12 0
1 -29 -4 0
1 -29 -1 0
1 -29 3 0
1 -29 7 0
1 -29 53 0
1 -29 68 0
1 -29 70 0
1 -28 -21 0
1 -28 -19 0
1 -28 5 0
1 -28 7 0
1 -28 46 0
1 -28 55 0
1 -27 5 0
1 -27 18 0
1 -27 36 0
1 -27 39 0
1 -27 45 0
1 -27 54 0
1 -27 58 0
1 -27 74 0
1 -27 75 0
1 -26 -8 0
1 -26 5 0
1 -26 21 0
1 -26 38 0
1 -26 64 0
1 -26 67 0
1 -25 -13 0
1 -25 6 0
1 -25 9 0
1 -25 20 0
1 -25 22 0
1 -25 32 0
1 -25 50 0
1 -25 51 0
1 -25 61 0
1 -25 70 0
1 -24 -23 0
1 -24 -16 0
1 -24 19 0
1 -24 52 0
1 -24 58 0
1 -24 65 0
1 -24 66 0
1 -23 -20 0
1 -23 -18 0
1 -23 9 0
1 -23 17 0
1 -23 32 0
1 -23 51 0
1 -23 55 0
1 -22 -18 0
1 -22 -1 0
1 -22 2 0
1 -22 16 0
1 -22 18 0
1 -22 62 0
1 -21 -15 0
1 -21 -7 0
1 -21 -5 0
1 -21 44 0
1 -21 59 0
1 -21 61 0
1 -21 64 0
1 -21 75 0
1 -20 10 0
1 -20 39 0
1 -20 44 0
1 -20 54 0
1 -20 60 0
1 -20 71 0
1 -19 11 0
1 -19 20 0
1 -19 31 0
1 -19 47 0
1 -19 56 0
1 -19 61 0
1 -19 66 0
1 -18 -5 0
1 -18 -4 0
1 -18 27 0
1 -18 34 0
1 -18 62 0
1 -17 1 0
1 -17 28 0
1 -17 38 0
1 -17 45 0
1 -17 46 0
1 -17 52 0
1 -17 54 0
1 -17 71 0
1 -17 73 0
1 -16 -3 0
1 -16 11 0
1 -16 14 0
1 -16 50 0
1 -16 63 0
1 -16 75 0
1 -15 3 0
1 -15 8 0
1 -15 25 0
1 -15 30 0
1 -15 48 0
1 -14 1 0
1 -14 12 0
1 -14 43 0
1 -14 45 0
1 -14 63 0
1 -14 74 0
1 -13 5 0
1 -13 21 0
1 -13 22 0
1 -13 48 0
1 -13 68 0
1 -13 75 0
1 -12 4 0
1 -12 19 0
1 -12 25 0
1 -12 56 0
1 -12 65 0
1 -12 71 0
1 -12 75 0
1 -11 -7 0
1 -11 4 0
1 -11 64 0
1 -11 66 0
1 -11 70 0
1 -11 75 0
1 -10 5 0
1 -10 13 0
1 -10 26 0
1 -10 30 0
1 -10 35 0
1 -10 42 0
1 -9 14 0
1 -9 22 0
1 -9 36 0
1 -9 45 0
1 -9 50 0
1 -9 60 0
1 -8 6 0
1 -8 33 0
1 -8 42 0
1 -8 48 0
1 -8 57 0
1 -8 63 0
1 -7 -6 0
1 -7 -4 0
1 -7 26 0
1 -7 34 0
1 -7 44 0
1 -7 45 0
1 -7 54 0
1 -6 4 0
1 -6 15 0
1 -6 22 0
1 -6 52 0
1 -6 55 0
1 -6 64 0
1 -5 -2 0
1 -5 19 0
1 -5 21 0
1 -5 44 0
1 -5 66 0
1 -5 71 0
1 -4 -1 0
1 -4 9 0
1 -4 30 0
1 -4 34 0
1 -4 35 0
1 -4 40 0
1 -4 72 0
1 -3 11 0
1 -3 39 0
1 -3 45 0
1 -3 53 0
1 -3 63 0
1 -3 68 0
1 -2 15 0
1 -2 38 0
1 -2 42 0
1 -2 50 0
1 -2 73 0
1 -1 12 0
1 -1 23 0
1 -1 30 0
1 -1 48 0
1 -1 60 0
1 -1 72 0
1 1 9 0
1 1 49 0
1 1 59 0
1 1 75 0
1 2 21 0
1 2 23 0
1 2 39 0
1 2 45 0
1 2 59 0
1 2 61 0
1 2 64 0
1 3 7 0
1 3 35 0
1 3 36 0
1 3 67 0
1 4 13 0
1 4 24 0
1 4 27 0
1 4 57 0
1 4 60 0
1 5 19 0
1 5 46 0
1 6 20 0
1 6 65 0
1 6 72 0
1 7 41 0
1 8 26 0
1 8 36 0
1 8 41 0
1 8 47 0
1 8 59 0
1 8 60 0
1 9 17 0
1 9 18 0
1 9 30 0
1 9 32 0
1 9 59 0
1 10 15 0
1 10 22 0
1 10 23 0
1 10 42 0
1 10 56 0
1 10 66 0
1 11 19 0
1 11 44 0
1 11 54 0
1 11 64 0
1 11 71 0
1 12 17 0
1 12 27 0
1 12 53 0
1 12 68 0
1 13 25 0
1 13 26 0
1 13 47 0
1 13 56 0
1 13 65 0
1 14 20 0
1 14 33 0
1 14 35 0
1 14 64 0
1 14 65 0
1 14 74 0
1 15 28 0
1 15 37 0
1 15 39 0
1 15 44 0
1 15 46 0
1 15 49 0
1 16 29 0
1 16 30 0
1 16 46 0
1 16 48 0
1 16 58 0
1 17 29 0
1 17 30 0
1 17 58 0
1 17 68 0
1 17 72 0
1 18 25 0
1 18 35 0
1 18 45 0
1 18 62 0
1 18 71 0
1 18 75 0
1 19 38 0
1 19 40 0
1 19 62 0
1 20 27 0
1 20 47 0
1 20 64 0
1 20 73 0
1 21 36 0
1 21 61 0
1 21 69 0
1 21 73 0
1 22 37 0
1 22 40 0
1 22 52 0
1 22 60 0
1 23 26 0
1 23 50 0
1 23 52 0
1 23 62 0
1 23 70 0
1 24 27 0
1 24 28 0
1 24 32 0
1 24 34 0
1 24 35 0
1 24 47 0
1 24 67 0
1 24 69 0
1 25 28 0
1 25 31 0
1 25 34 0
1 25 72 0
1 26 29 0
1 26 38 0
1 26 59 0
1 27 47 0
1 27 53 0
1 27 73 0
1 28 40 0
1 28 50 0
1 28 72 0
1 28 74 0
1 29 37 0
1 29 48 0
1 29 66 0
1 29 74 0
1 29 75 0
1 30 58 0
1 30 69 0
1 31 35 0
1 31 47 0
1 31 54 0
1 31 65 0
1 31 73 0
1 32 55 0
1 32 65 0
1 32 68 0
1 32 69 0
1 33 40 0
1 33 59 0
1 33 63 0
1 33 75 0
1 34 35 0
1 34 40 0
1 34 52 0
1 34 57 0
1 34 72 0
1 35 55 0
1 35 67 0
1 36 38 0
1 36 39 0
1 36 49 0
1 37 38 0
1 37 44 0
1 37 58 0
1 37 62 0
1 37 74 0
1 38 72 0
1 39 41 0
1 39 63 0
1 40 41 0
1 40 54 0
1 41 49 0
1 41 60 0
1 41 71 0
1 42 44 0
1 42 49 0
1 42 55 0
1 43 49 0
1 43 50 0
1 43 57 0
1 43 70 0
1 44 57 0
1 45 53 0
1 45 57 0
1 46 58 0
1 46 69 0
1 48 61 0
1 49 56 0
1 49 63 0
1 49 72 0
1 50 61 0
1 51 55 0
1 51 56 0
1 51 65 0
1 52 66 0
1 52 74 0
1 53 62 0
1 53 73 0
1 53 74 0
1 54 58 0
1 54 64 0
1 54 72 0
1 55 63 0
1 55 65 0
1 56 60 0
1 56 69 0
1 57 61 0
1 57 65 0
1 59 70 0
1 60 67 0
1 61 69 0
1 62 66 0
1 62 74 0
1 63 70 0
1 70 74 0
